headline_hunt/bets/cascade_aux_encoding/comparisons/cadical_50k_full9_2026-04-25/bit25_aux_expose_sr61_n32_bit25_m09990bd2_fill80000000.log
c --- [ banner ] -------------------------------------------------------------
c 
c CaDiCaL SAT Solver
c Copyright (c) 2016-2025
c A. Biere, M. Fleury, N. Froleyks, K. Fazekas, F. Pollitt, T. Faller
c JKU Linz, University of Freiburg, TU Wien
c 
c Version 3.0.0
c Apple clang version 17.0.0 (clang-1700.6.3.2) -Wall -Wextra -O3 -DNDEBUG -DNCLOSEFROM
c Tue Dec 23 21:53:38 UTC 2025 Darwin Tahoe-arm64.local 25.2.0 arm64
c 
c --- [ limit ] --------------------------------------------------------------
c 
c setting conflict limit to 50000 conflicts (due to '50000')
c 
c --- [ parsing input ] ------------------------------------------------------
c 
c reading DIMACS file from 'headline_hunt/bets/cascade_aux_encoding/cnfs/aux_expose_sr61_n32_bit25_m09990bd2_fill80000000.cnf'
c opening file to read 'headline_hunt/bets/cascade_aux_encoding/cnfs/aux_expose_sr61_n32_bit25_m09990bd2_fill80000000.cnf'
c found 'p cnf 12866 53866' header
c parsed 53866 clauses in 0.01 seconds process time
c 
c --- [ options ] ------------------------------------------------------------
c 
c   --seed=5                       (different from default '0')
c 
c --- [ solving ] ------------------------------------------------------------
c 
c time measured in process time since initialization
c 
c  seconds  reduction conflicts       size tier2       variables
c         MB    restarts   redundant    glue  trail         remaining
c          level     rate       size/glu tier1  irredundant
c 
c *  0.01  0  0 0   0  0    0    0 0.0 0 0 2 6  0% 53801 12865 100%
c (  0.01  0  0 0   0  0    0    0 0.0 0 0 2 6  0% 53801 12865 100%
c .  0.01  0  0 0   0  0    0    0 0.0 0 0 2 6  0% 53801 12865 100%
c c  0.03  0  0 0   0  0    0    0 0.0 0 0 2 6  0% 51291 12225 95%
c d  0.04  0  0 0   0  0    0    0 0.0 0 0 2 6  0% 46573 10890 85%
c 2  0.04  0  0 0   0  0    0    0 0.0 0 0 2 6  0% 46509 10890 85%
c f  0.05  0  0 0   0  0    0    0 0.0 0 0 2 6  0% 46443 10956 85%
c e  0.06  0  0 0   0  0    0    0 0.0 0 0 2 6  0% 43321 7634 59%
c s  0.07  0  0 0   0  0    0    0 0.0 0 0 2 6  0% 43316 7634 59%
c s  0.07  0  0 0   0  0    0    0 0.0 0 0 2 6  0% 43315 7634 59%
c P  0.07  0  0 0   0  0    0    0 0.0 0 0 2 6  0% 43315 7634 59%
c )  0.07  0  0 0   0  0    0    0 0.0 0 0 2 6  0% 43315 7634 59%
c {  0.08  0  0 0   0  0    0    0 0.0 0 0 2 6  0% 43315 7634 59%
c -  0.08  0 795 1  31 38  301  204 1.4 4 3 2 6 14% 43315 7634 59%
c -  0.08  0 589 2  61 66  735  559 1.5 4 3 2 6 15% 43315 7634 59%
c }  0.09  0 462 2  70 50 1001  771 1.6 5 3 2 6 14% 43315 7634 59%
c [  0.09  0  0 2  70  0 1001  771 0.0 0 0 2 6  0% 43315 7634 59%
c O  0.09  0 527 2  70 528 1002  772 2.3 190 81 2 6 47% 43315 7634 59%
c ]  0.09  0 520 2  70 30 1019  789 2.3 183 81 2 6 47% 43315 7634 59%
c {  0.09  0 462 2  70 50 1019  789 1.6 5 3 2 6 14% 43315 7634 59%
c 
c  seconds   reduction conflicts       size tier2      variables
c         MB     restarts   redundant    glue  trail        remaining
c           level     rate       size/glu tier1  irredundant
c 
c -  0.10  0 362 3  96 39 1412 1039 1.6 5 3 2 6 12% 43315 7634 59%
c 2  0.11  0 265 3 201 32 2240 1645 1.6 5 3 2 6  5% 43253 7634 59%
c d  0.11  0 265 3 201 32 2240 1541 1.6 5 3 2 6  5% 43137 7536 59%
c c  0.12  0 265 3 201 32 2240 1541 1.6 5 3 2 6  5% 43019 7536 59%
c d  0.12  0 265 3 201 32 2240 1483 1.6 5 3 2 6  5% 42977 7515 58%
c 2  0.12  0 265 3 201 32 2240 1482 1.6 5 3 2 6  5% 42970 7515 58%
c -  0.13  0 261 4 220 32 2351 1394 1.6 5 3 2 6  7% 42970 7515 58%
c O  0.13  0 221 4 271 28 3005 1876 1.6 5 3 2 6  6% 42970 7515 58%
c -  0.14  0 202 5 352 27 3564 2070 1.6 5 3 2 6  6% 42970 7515 58%
c }  0.14  0 183 5 414 25 4120 2456 1.6 5 3 2 6  6% 42970 7515 58%
c [  0.14  0 520 5 414 30 4120 2456 2.3 183 81 2 6 79% 42970 7515 58%
c s  0.15  0 371 5 414 23 4131 2464 2.2 133 61 2 6 56% 42964 7515 58%
c t  0.15  0 371 5 414 23 4131 2464 2.2 133 61 2 6 56% 42960 7515 58%
c e  0.17  0 371 5 414 23 4131 2377 2.2 133 61 2 6 56% 42829 7040 55%
c s  0.17  0 371 5 414 23 4131 2280 2.2 133 61 2 6 56% 42786 7040 55%
c e  0.17  0 371 5 414 23 4131 2219 2.2 133 61 2 6 56% 42717 7028 55%
c ]  0.20  0 188 5 414  9 4198 2284 2.1 151 72 2 6 56% 42717 7028 55%
c {  0.20  0 183 5 414 25 4198 2284 1.6 5 3 2 6  6% 42717 7028 55%
c 2  0.21  0 170 5 512 24 4741 2676 1.6 6 4 2 6  6% 42714 7028 55%
c d  0.21  0 170 5 512 24 4741 2278 1.6 6 4 2 6  6% 42634 6961 54%
c 
c  seconds   reduction conflicts       size tier2      variables
c         MB     restarts   redundant    glue  trail        remaining
c           level     rate       size/glu tier1  irredundant
c 
c c  0.22  0 170 5 512 24 4741 2278 1.6 6 4 2 6  6% 42390 6961 54%
c d  0.22  0 170 5 512 24 4741 2135 1.6 6 4 2 6  6% 42322 6927 54%
c 2  0.22  0 170 5 512 24 4741 2135 1.6 6 4 2 6  6% 42318 6927 54%
c =  0.23  0 170 5 512 24 4741 1978 1.6 6 4 2 6  6% 42292 6891 54%
c -  0.24  0 167 6 587 25 5057 1329 1.6 6 4 1 2  6% 42292 6891 54%
c #  0.25  0 156 6 690 23 6007 2079 1.6 6 4 1 2  6% 42292 6891 54%
c -  0.25  0 144 7 771 22 6834 2245 1.6 6 4 2 3  6% 42292 6891 54%
c d  0.26  0 140 7 862 22 7344 2451 1.6 6 4 2 3  6% 42292 6850 53%
c c  0.27  0 140 7 862 22 7344 2451 1.6 6 4 2 3  6% 42114 6850 53%
c d  0.27  0 140 7 862 22 7344 2388 1.6 6 4 2 3  6% 42053 6820 53%
c 2  0.27  0 140 7 862 22 7344 2388 1.6 6 4 2 3  6% 42045 6820 53%
c -  0.29  0 128 8 1088 21 8900 2872 1.6 6 4 2 3  6% 42045 6820 53%
c }  0.30  0 124 8 1171 20 9629 3421 1.6 6 4 2 3  7% 42045 6820 53%
c [  0.30  0 188 8 1171  9 9629 3421 2.1 151 72 2 6 62% 42045 6820 53%
c ]  0.36  0 123 8 1171  4 9834 3608 3.5 182 52 2 6 65% 42045 6820 53%
c {  0.36  0 124 8 1171 20 9834 3608 1.6 6 4 2 3  7% 42045 6820 53%
c B  0.37  0 123 8 1212 20 10008 3760 1.6 7 4 2 3  7% 42045 6820 53%
c d  0.37  0 123 8 1220 20 10041 3566 1.7 7 4 2 3  8% 42045 6782 53%
c c  0.38  0 123 8 1220 20 10041 3566 1.7 7 4 2 3  8% 41842 6782 53%
c d  0.38  0 123 8 1220 20 10041 3479 1.7 7 4 2 3  8% 41786 6754 52%
c 
c  seconds   reductions  conflicts       size tier2      variables
c         MB     restarts     redundant    glue  trail        remaining
c           level      rate        size/glu tier1  irredundant
c 
c 2  0.38  0 123 8 1220 20 10041 3479 1.7 7 4 2 3  8% 41779 6754 52%
c =  0.40  0 123 8 1220 20 10041 3475 1.7 7 4 2 3  8% 41778 6747 52%
c f  0.40  0 123 8 1220 20 10041 3475 1.7 7 4 2 3  7% 41469 7052 55%
c }  0.49  0 119 8 1463 20 11214 4495 1.9 12 6 2 3 12% 41469 7052 55%
c [  0.49  0 123 8 1463  4 11214 4495 3.5 182 52 2 6 62% 41469 7052 55%
c -  0.50  0 122 9 1463  4 11258 3532 3.5 172 49 2 6 59% 41469 7052 55%
c ]  0.61  0 112 9 1463  2 11625 3862 3.6 177 49 2 6 60% 41469 7052 55%
c {  0.61  0 119 9 1463 20 11625 3862 1.9 12 6 2 3 12% 41469 7052 55%
c }  0.77  0 118 9 1609 19 12215 4428 2.3 21 9 2 3 19% 41469 7052 55%
c [  0.77  0 112 9 1609  2 12215 4428 3.6 177 49 2 6 60% 41469 7052 55%
c p  0.94  0 110 9 1610  2 12825 6268 3.4 164 49 2 6 55% 41469 7052 55%
c =  0.98  0 110 9 1610  2 12825 6268 3.4 164 49 2 6 55% 41467 7050 55%
c u  0.99  0 110 9 1610  2 12825 4906 3.4 164 49 2 6 55% 41434 7050 55%
c v  1.00  0 110 9 1610  2 12825 4729 3.4 164 49 2 6 55% 41434 7050 55%
c w  1.00  0 110 9 1610  2 12825 4707 3.4 164 49 2 6 55% 41434 7050 55%
c x  1.01  0 110 9 1610  2 12825 4707 3.4 164 49 2 6 55% 41181 7050 55%
c t  1.01  0 110 9 1610  2 12825 4702 3.4 164 49 2 6 55% 41181 7050 55%
c 2  1.01  0 110 9 1610  2 12825 4701 3.4 164 49 2 6 55% 41181 7050 55%
c f  1.03  0 110 9 1610  2 12825 4670 3.4 164 49 2 6 54% 41088 7159 56%
c ]  1.06  0 110 9 1610  2 12975 4809 3.3 160 49 2 6 53% 41088 7159 56%
c 
c  seconds   reductions  conflicts       size  tier2      variables
c         MB     restarts     redundant     glue  trail        remaining
c           level      rate        size/glue tier1  irredundant
c 
c {  1.06  0 118 9 1610 19 12975 4809 2.3 21 9 2 3 19% 41088 7159 56%
c -  1.18  0 115 10 1834 19 13911 2816 2.3 26 12 1 2 21% 41088 7159 56%
c }  1.28  0 115 10 1920 19 14248 3142 2.4 31 13 1 2 24% 41088 7159 56%
c [  1.28  0 110 10 1920  2 14248 3142 3.3 160 49 2 6 53% 41088 7159 56%
c s  1.40  0 109 10 1920  2 14547 3371 3.3 166 51 2 6 56% 40421 7159 56%
c e  1.41  0 109 10 1920  2 14547 2783 3.3 166 51 2 6 56% 40186 6807 53%
c s  1.41  0 109 10 1920  2 14547 2764 3.3 166 51 2 6 56% 39897 6807 53%
c e  1.42  0 109 10 1920  2 14547 2764 3.3 166 51 2 6 56% 39880 6805 53%
c I  1.55  0 110 10 1921  2 15009 3177 3.0 161 54 2 6 55% 39880 6805 53%
c ]  1.59  0 109 10 1921  2 15244 3395 2.9 156 53 2 6 54% 39880 6805 53%
c {  1.59  0 115 10 1921 19 15244 3395 2.4 31 13 1 2 24% 39880 6805 53%
c 2  1.61  0 114 10 1979 19 15691 3718 2.4 31 13 1 2 23% 39880 6805 53%
c d  1.61  0 114 10 1979 19 15691 3696 2.4 31 13 1 2 23% 39880 6794 53%
c p  1.61  0 114 10 1979 19 15691 4509 2.4 31 13 1 2 23% 39880 6794 53%
c 2  1.61  0 114 10 1979 19 15691 4509 2.4 31 13 1 2 23% 39872 6794 53%
c =  1.64  0 114 10 1979 19 15691 4509 2.4 31 13 1 2 23% 39870 6792 53%
c u  1.65  0 114 10 1979 19 15691 4212 2.4 31 13 1 2 23% 39870 6792 53%
c v  1.65  0 114 10 1979 19 15691 4086 2.4 31 13 1 2 23% 39870 6792 53%
c w  1.66  0 114 10 1979 19 15691 4064 2.4 31 13 1 2 23% 39870 6792 53%
c t  1.66  0 114 10 1979 19 15691 4062 2.4 31 13 1 2 23% 39866 6792 53%
c 
c  seconds   reductions   conflicts       size   tier2      variables
c         MB      restarts     redundant     glue   trail        remaining
c           level       rate        size/glue  tier1  irredundant
c 
c f  1.67  0 114 10 1979 19 15691 3886 2.4 31 13 1 2 23% 39804 6991 54%
c }  1.95  0 112 10 2201 18 16812 4939 2.5 44 18 1 2 28% 39804 6991 54%
c [  1.95  0 109 10 2201  2 16812 4939 2.9 156 53 2 6 52% 39804 6991 54%
c -  1.95  0 108 11 2201  2 16861 2881 2.9 155 53 2 6 52% 39804 6991 54%
c ]  2.30  0 106 11 2201  2 17859 3756 2.5 153 62 2 6 56% 39804 6991 54%
c {  2.30  0 112 11 2201 18 17859 3756 2.5 44 18 1 2 28% 39804 6991 54%
c d  2.36  0 111 11 2297 17 18634 4449 2.5 44 18 1 2 27% 39804 6989 54%
c p  2.36  0 111 11 2297 17 18634 5002 2.5 44 18 1 2 27% 39804 6989 54%
c c  2.38  0 111 11 2297 17 18634 5002 2.5 44 18 1 2 27% 39785 6989 54%
c d  2.38  0 111 11 2297 17 18634 4998 2.5 44 18 1 2 27% 39779 6986 54%
c =  2.43  0 111 11 2297 17 18634 4998 2.5 44 18 1 2 27% 39772 6979 54%
c u  2.43  0 111 11 2297 17 18634 4857 2.5 44 18 1 2 27% 39772 6979 54%
c v  2.44  0 111 11 2297 17 18634 4727 2.5 44 18 1 2 27% 39772 6979 54%
c w  2.45  0 111 11 2297 17 18634 4708 2.5 44 18 1 2 27% 39772 6979 54%
c x  2.45  0 111 11 2297 17 18634 4708 2.5 44 18 1 2 27% 39758 6979 54%
c t  2.45  0 111 11 2297 17 18634 4708 2.5 44 18 1 2 27% 39757 6979 54%
c 2  2.45  0 111 11 2297 17 18634 4707 2.5 44 18 1 2 27% 39757 6979 54%
c f  2.45  0 111 11 2297 17 18634 4643 2.5 44 18 1 2 27% 39782 7016 55%
c -  2.66  0 109 12 2531 17 20108 3476 2.5 49 19 1 2 28% 39782 7016 55%
c }  2.80  0 109 12 2650 17 20608 3926 2.5 54 21 1 2 30% 39782 7016 55%
c 
c  seconds   reductions   conflicts        size   tier2      variables
c         MB      restarts     redundant      glue   trail        remaining
c           level       rate        size/glue   tier1  irredundant
c 
c [  2.80  0 106 12 2650  2 20608 3926 2.5 153 62 2 6 56% 39782 7016 55%
c B  2.99  0 106 12 2650  2 21011 4312 2.4 156 65 2 6 58% 39782 7016 55%
c p  3.12  0 107 12 2651  2 21644 5307 2.3 150 64 1 2 56% 39782 7016 55%
c =  3.17  0 107 12 2651  2 21644 5281 2.3 150 64 1 2 56% 39757 6957 54%
c u  3.18  0 107 12 2651  2 21644 5102 2.3 150 64 1 2 56% 39564 6957 54%
c v  3.18  0 107 12 2651  2 21644 5005 2.3 150 64 1 2 56% 39564 6957 54%
c w  3.19  0 107 12 2651  2 21644 4977 2.3 150 64 1 2 56% 39564 6957 54%
c t  3.19  0 107 12 2651  2 21644 4977 2.3 150 64 1 2 56% 39563 6957 54%
c f  3.20  0 107 12 2651  2 21644 4939 2.3 150 64 1 2 56% 39587 6971 54%
c ]  3.36  0 106 12 2651  2 22197 5464 2.3 152 66 1 2 56% 39587 6971 54%
c {  3.36  0 109 12 2651 17 22197 5464 2.5 54 21 1 2 30% 39587 6971 54%
c -  3.61  0 107 13 2908 16 23655 3796 2.6 59 23 1 2 31% 39587 6971 54%
c p  3.70  0 107 13 3009 16 24721 5195 2.6 59 23 1 2 30% 39587 6971 54%
c =  3.74  0 107 13 3009 16 24721 5155 2.6 59 23 1 2 30% 39477 6793 53%
c u  3.74  0 107 13 3009 16 24721 4881 2.6 59 23 1 2 30% 39201 6793 53%
c v  3.75  0 107 13 3009 16 24721 4725 2.6 59 23 1 2 30% 39201 6793 53%
c w  3.76  0 107 13 3009 16 24721 4721 2.6 59 23 1 2 30% 39201 6793 53%
c t  3.76  0 107 13 3009 16 24721 4720 2.6 59 23 1 2 30% 39199 6793 53%
c 2  3.76  0 107 13 3009 16 24721 4719 2.6 59 23 1 2 30% 39191 6793 53%
c f  3.76  0 107 13 3009 16 24721 4719 2.6 59 23 1 2 30% 39182 6800 53%
c 
c  seconds   reductions   conflicts       size   tier2      variables
c         MB      restarts     redundant     glue   trail        remaining
c           level       rate        size/glue  tier1  irredundant
c 
c }  3.94  0 105 13 3207 15 27085 6931 2.6 60 23 1 2 29% 39182 6800 53%
c [  3.94  0 106 13 3207  2 27085 6931 2.3 152 66 1 2 56% 39182 6800 53%
c -  3.99  0 106 14 3208  2 27501 4186 2.3 147 63 1 2 54% 39182 6800 53%
c p  4.01  0 106 14 3208  1 27860 4535 2.3 141 61 1 2 52% 39182 6800 53%
c =  4.04  0 106 14 3208  1 27860 4535 2.3 141 61 1 2 52% 39182 6799 53%
c t  4.04  0 106 14 3208  1 27860 4535 2.3 141 61 1 2 52% 39181 6799 53%
c W  4.17  0 106 14 3208  2 28012 4687 2.3 143 61 1 2 52% 39181 6799 53%
c ]  4.66  0 107 14 3209  1 29647 6263 2.4 151 63 1 2 53% 39181 6799 53%
c {  4.66  0 105 14 3209 15 29647 6263 2.6 60 23 1 2 29% 39181 6799 53%
c s  4.67  0 105 14 3231 15 29854 6412 2.6 60 23 1 2 29% 38365 6799 53%
c t  4.67  0 105 14 3231 15 29854 6412 2.6 60 23 1 2 29% 38362 6799 53%
c e  4.68  0 105 14 3231 15 29854 6285 2.6 60 23 1 2 29% 36864 6522 51%
c s  4.68  0 105 14 3231 15 29854 6275 2.6 60 23 1 2 29% 36829 6522 51%
c e  4.68  0 105 14 3231 15 29854 6273 2.6 60 23 1 2 29% 36829 6521 51%
c -  4.77  0 104 15 3333 14 31646 4717 2.5 59 23 1 2 20% 36829 6521 51%
c 2  4.77  0 104 15 3333 14 31646 4714 2.5 59 23 1 2 20% 36829 6521 51%
c p  4.77  0 104 15 3333 14 31646 5082 2.5 59 23 1 2 20% 36829 6521 51%
c =  4.81  0 104 15 3333 14 31646 5081 2.5 59 23 1 2 20% 36829 6517 51%
c u  4.82  0 104 15 3333 14 31646 4619 2.5 59 23 1 2 20% 36829 6517 51%
c v  4.82  0 104 15 3333 14 31646 4393 2.5 59 23 1 2 20% 36829 6517 51%
c 
c  seconds   reductions   conflicts       size   tier2      variables
c         MB      restarts     redundant     glue   trail        remaining
c           level       rate        size/glue  tier1  irredundant
c 
c x  4.83  0 104 15 3333 14 31646 4393 2.5 59 23 1 2 20% 36795 6517 51%
c t  4.83  0 104 15 3333 14 31646 4393 2.5 59 23 1 2 20% 36792 6517 51%
c f  4.83  0 104 15 3333 14 31646 4373 2.5 59 23 1 2 20% 36787 6539 51%
c W  5.13  0 104 15 3690 13 36013 8435 2.5 60 24 1 2 25% 36786 6539 51%
c -  5.14  0 104 16 3692 13 36094 5093 2.5 60 24 1 2 25% 36786 6539 51%
c p  5.14  0 104 16 3692 13 36094 5416 2.5 60 24 1 2 25% 36786 6539 51%
c =  5.17  0 104 16 3692 13 36094 5396 2.5 60 24 1 2 25% 36751 6514 51%
c u  5.17  0 104 16 3692 13 36094 5003 2.5 60 24 1 2 25% 36750 6514 51%
c v  5.18  0 104 16 3692 13 36094 4825 2.5 60 24 1 2 25% 36750 6514 51%
c w  5.18  0 104 16 3692 13 36094 4824 2.5 60 24 1 2 25% 36750 6514 51%
c 2  5.18  0 104 16 3692 13 36094 4823 2.5 60 24 1 2 25% 36750 6514 51%
c f  5.18  0 104 16 3692 13 36094 4811 2.5 60 24 1 2 25% 36755 6521 51%
c }  5.38  0 103 16 3975 12 40130 8599 2.5 60 24 1 2 24% 36755 6521 51%
c [  5.38  0 107 16 3975  1 40130 8599 2.4 151 63 1 2 61% 36755 6521 51%
c -  5.64  0 106 17 3976  1 40848 5455 2.5 156 63 1 2 62% 36755 6521 51%
c p  5.64  0 106 17 3976  1 40848 5651 2.5 156 63 1 2 62% 36755 6521 51%
c =  5.68  0 106 17 3976  1 40848 5651 2.5 156 63 1 2 62% 36754 6517 51%
c u  5.69  0 106 17 3976  1 40848 5348 2.5 156 63 1 2 62% 36754 6517 51%
c v  5.69  0 106 17 3976  1 40848 5164 2.5 156 63 1 2 62% 36754 6517 51%
c w  5.69  0 106 17 3976  1 40848 5164 2.5 156 63 1 2 62% 36754 6517 51%
c 
c  seconds   reductions   conflicts        size   tier2      variables
c         MB      restarts     redundant      glue   trail        remaining
c           level       rate        size/glue   tier1  irredundant
c 
c x  5.69  0 106 17 3976  1 40848 5161 2.5 156 63 1 2 62% 36666 6517 51%
c 2  5.69  0 106 17 3976  1 40848 5161 2.5 156 63 1 2 62% 36660 6517 51%
c f  5.70  0 106 17 3976  1 40848 5160 2.5 156 63 1 2 62% 36656 6522 51%
c ]  6.16  0 107 17 3976  1 42347 6609 2.5 165 65 1 2 64% 36656 6522 51%
c {  6.16  0 103 17 3976 12 42347 6609 2.5 60 24 1 2 24% 36656 6522 51%
c F  6.36  0 102 17 4287 12 45015 9081 2.5 61 24 1 2 24% 36656 6522 51%
c -  6.44  0 101 18 4366 12 45901 5929 2.5 61 24 1 2 25% 36656 6522 51%
c p  6.45  0 101 18 4366 12 45901 6245 2.5 61 24 1 2 25% 36656 6522 51%
c =  6.50  0 101 18 4366 12 45901 6244 2.5 61 24 1 2 25% 36656 6499 51%
c u  6.52  0 101 18 4366 12 45901 5832 2.5 61 24 1 2 25% 36654 6499 51%
c v  6.52  0 101 18 4366 12 45901 5591 2.5 61 24 1 2 25% 36654 6499 51%
c w  6.52  0 101 18 4366 12 45901 5591 2.5 61 24 1 2 25% 36654 6499 51%
c x  6.53  0 101 18 4366 12 45901 5589 2.5 61 24 1 2 25% 36594 6499 51%
c t  6.53  0 101 18 4366 12 45901 5589 2.5 61 24 1 2 25% 36592 6499 51%
c 2  6.53  0 101 18 4366 12 45901 5589 2.5 61 24 1 2 25% 36588 6499 51%
c f  6.53  0 101 18 4366 12 45901 5589 2.5 61 24 1 2 25% 36584 6503 51%
c s  6.84  0 100 18 4791 12 49836 9268 2.5 63 25 1 2 26% 36235 6503 51%
c e  6.85  0 100 18 4791 12 49836 7649 2.5 63 25 1 2 26% 36211 6388 50%
c s  6.85  0 100 18 4791 12 49836 7605 2.5 63 25 1 2 26% 36176 6388 50%
c e  6.85  0 100 18 4791 12 49836 7604 2.5 63 25 1 2 26% 36176 6385 50%
c 
c  seconds   reductions   conflicts       size   tier2      variables
c         MB      restarts     redundant     glue   trail        remaining
c           level       rate        size/glue  tier1  irredundant
c 
c }  6.88  0 100 18 4833 12 50000 7765 2.5 63 25 1 2 26% 36176 6385 50%
c ?  6.88  0 100 18 4833 12 50000 7765 2.5 63 25 1 2 26% 36176 6385 50%
c 
c --- [ result ] -------------------------------------------------------------
c 
c UNKNOWN
c 
c --- [ run-time profiling ] -------------------------------------------------
c 
c process time taken by individual solving procedures
c (percentage relative to process time for solving)
c 
c         5.94   86.39% search
c         2.97   43.24% unstable
c         2.87   41.79% stable
c         0.93   13.57% simplify
c         0.37    5.44% sweep
c         0.16    2.26% vivify
c         0.12    1.68% congruence
c         0.11    1.53% factor
c         0.09    1.28% walk
c         0.06    0.89% preprocess
c         0.06    0.82% elim
c         0.03    0.43% subsume
c         0.02    0.23% fastelim
c         0.01    0.20% probe
c         0.01    0.19% ternary
c         0.01    0.13% parse
c         0.01    0.08% backbone
c         0.01    0.08% lucky
c   =================================
c         6.87   99.87% solve
c 
c last line shows process time for solving
c (percentage relative to total process time)
c 
c --- [ statistics ] ---------------------------------------------------------
c 
c chronological:             14703        29.41 %  of conflicts
c conflicts:                 50000      7276.88    per second
c backbone:                 371621      2724.29 %  of vars
c decisions:                486640     70824.42    per second
c eliminated:                 4559        33.42 %  of all variables
c factored:                    775        11.81 %  of variables
c fixed:                       641         4.70 %  of all variables
c learned:                   46435        92.87 %  per conflict
c learned_lits:            7584358       100.00 %  learned literals
c minimized:                     0         0.00 %  learned literals
c shrunken:                 811507        10.70 %  learned literals
c minishrunken:            2900761        38.25 %  learned literals
c otfs:                       2244         4.49 %  of conflict
c propagations:           59194452         8.62 M  per second
c reduced:                   28323        56.65 %  per conflict
c rephased:                      9      5555.56    interval
c restarts:                   4833        10.35    interval
c stabilizing:                  10        19.66 %  of conflicts
c substituted:                2056        15.07 %  of all variables
c sweep equivs:                348         5.45 %  of swept variables
c subsumed:                  11816         7.79 %  of all clauses
c strengthened:               7149         4.71 %  of all clauses
c ticks:                 393205435         6.81    propagation
c vivified:                   4493         2.96 %  of all clauses
c walked:                        2     25000.00    interval
c weakened:                  33228         2.87    average size
c congruence:                   10      5000.00    interval
c 
c seconds are measured in process time for solving
c 
c --- [ glue usage ] ---------------------------------------------------------
c 
c focused glue 1 used 401950 clauses 81.45% accumulated 81.45% tier1
c focused glue 2 used 46023 clauses 9.326% accumulated 90.77% tier2
c 
c stable glue 1 used 345098 clauses 87.91% accumulated 87.91% tier1
c stable glue 2 used 24448 clauses 6.228% accumulated 94.14% tier2
c 
c 
c --- [ resources ] ----------------------------------------------------------
c 
c total process time since initialization:         6.88    seconds
c total real time since initialization:            6.96    seconds
c maximum resident set size of process:        51584.00    MB
c 
c --- [ shutting down ] ------------------------------------------------------
c 
c exit 0
